NAME : XML100_1332_16
DIMENSION : 101
NB_CLUSTERS : 5
CLUSTERING_ALG : KMeans
CLUSTERING_PARAMS : k(4)
CLUSTERS
1 0
2 5 6 8 10 12 19 24 36 38 39 44 45 59 62 73 76 79 83 95 97 99
3 2 4 13 14 16 17 18 22 27 32 34 35 40 41 46 48 50 54 56 60 63 64 66 68 69 70 71 72 77 78 82 85 87 90 91 92 93 98 100
4 1 3 7 11 15 21 23 25 26 31 37 42 51 52 55 74 81 84 89 96
5 9 20 28 29 30 33 43 47 49 53 57 58 61 65 67 75 80 86 88 94
EOF